\ Model Model: H-KMedian-N_copy
\ LP format - for model browsing. Use MPS format to capture full model detail.
Minimize
 
Subject To
 R2: 3.649451804872672 alpha[1000,0,1,0,1004,1] - 2.70794 point[1,0,0]
   - 24.10941 point[1,0,1] >= 300.0026851861514
Bounds
Binaries
 alpha[1000,0,1,0,1004,1]
End
